15
-1 625 543 500 724 463 707 805 713 361 436 342 634 64 242 
625 -1 498 528 102 593 141 265 112 263 244 291 140 565 395 
543 498 -1 60 541 147 454 763 496 421 294 364 384 524 491 
500 528 60 -1 579 87 497 792 536 419 307 360 424 487 473 
724 102 541 579 -1 653 101 248 51 364 324 387 156 666 497 
463 593 147 87 653 -1 576 855 612 451 359 390 500 461 480 
707 141 454 497 101 576 -1 350 49 359 280 365 80 653 498 
805 265 763 792 248 855 350 -1 300 465 499 513 391 741 562 
713 112 496 536 51 612 49 300 -1 357 298 372 112 657 494 
361 263 421 419 364 451 359 465 357 -1 145 60 295 301 139 
436 244 294 307 324 359 280 499 298 145 -1 110 202 387 264 
342 291 364 360 387 390 365 513 372 60 110 -1 294 287 153 
634 140 384 424 156 500 80 391 112 295 202 294 -1 581 434 
64 565 524 487 666 461 653 741 657 301 387 287 581 -1 178 
242 395 491 473 497 480 498 562 494 139 264 153 434 178 -1 
